NAME : XML100_1334_10
DIMENSION : 101
NB_CLUSTERS : 7
CLUSTERING_ALG : KMeans
CLUSTERING_PARAMS : k(6)
CLUSTERS
1 0
2 4 5 12 26 36 37 49 55 58 60 68 71 75 79 81 92
3 6 11 17 31 38 45 54 57 59 80 90 96 97
4 7 9 10 18 19 22 23 32 34 51 52 63 86 88 94 95 100
5 13 15 25 39 40 41 43 56 62 65 67 70 73 82 83 98 99
6 8 24 29 33 35 47 50 53 64 66 69 72 76 89 93
7 1 2 3 14 16 20 21 27 28 30 42 44 46 48 61 74 77 78 84 85 87 91
EOF